problems/VanDerWaerdenNumbers/VanDerWaerden-models/compact/O2/lingeling/model_1-k3l4n48-solution000001.solution
language Essence 1.3

letting p be
        partition({1, 3, 5, 6, 9, 10, 11, 19, 20, 21, 24, 26, 30, 32, 34, 35, 39, 41, 42, 44, 46, 47},
                  {2, 4, 7, 8, 13, 15, 16, 18, 27, 28, 29, 37, 45, 48},
                  {12, 14, 17, 22, 23, 25, 31, 33, 36, 38, 40, 43})
