problems/VanDerWaerdenNumbers/VanDerWaerden-models/noch/O2/lingeling/model_1-k3l4n48-solution000001.eprime-solution
language ESSENCE' 1.0

letting p_PartitionAsSet_ExplicitR2_Occurrence be
        [[false, false, false, false, false, false, false, false, false, false, false, true, false, true, false, false,
          true, false, false, false, false, true, true, false, true, false, false, false, false, false, true, false,
          true, false, false, true, false, true, false, true, false, false, true, false, false, false, false,
          false; int(1..48)],
         [false, true, false, true, false, false, true, true, false, false, false, false, true, false, true, true,
          false, true, false, false, false, false, false, false, false, false, true, true, true, false, false, false,
          false, false, false, false, true, false, false, false, false, false, false, false, true, false, false,
          true; int(1..48)],
         [true, false, true, false, true, true, false, false, true, true, true, false, false, false, false, false,
          false, false, true, true, true, false, false, true, false, true, false, false, false, true, false, true,
          false, true, true, false, false, false, true, false, true, true, false, true, false, true, true,
          false; int(1..48)]; int(1..3)]
